generated by phonopy
   1.0
    10.0588627800297559    0.0000000000000000    0.0000000000000000
     0.0000000000000000   11.4779531696039712    0.0000000000000000
     0.0000000000000000    0.0000000000000000   25.0000000000000000
Mo Te S
  12   12   12
Direct
  0.1666666666666667  0.4244628901961409  0.5056852071822800
  0.5000000000000000  0.4218491837663702  0.5056852071822800
  0.8333333333333333  0.4218491837663702  0.5056852071822800
  0.1666666666666667  0.9218491837663703  0.5056852071822800
  0.5000000000000000  0.9218491837663703  0.5056852071822800
  0.8333333333333333  0.9218491837663703  0.5056852071822800
  0.0000000000000000  0.1718521192388559  0.5055613463337619
  0.3333333333333333  0.1718521192388559  0.5055613463337619
  0.6666666666666666  0.1718521192388559  0.5055613463337619
  0.0000000000000000  0.6718521192388559  0.5055613463337619
  0.3333333333333333  0.6718521192388559  0.5055613463337619
  0.6666666666666666  0.6718521192388559  0.5055613463337619
  0.1666666666666667  0.2550153718036890  0.5835695110408197
  0.5000000000000000  0.2550153718036890  0.5835695110408197
  0.8333333333333333  0.2550153718036890  0.5835695110408197
  0.1666666666666667  0.7550153718036888  0.5835695110408197
  0.5000000000000000  0.7550153718036888  0.5835695110408197
  0.8333333333333333  0.7550153718036888  0.5835695110408197
  0.0000000000000000  0.0050151195773742  0.4276790414541876
  0.3333333333333333  0.0050151195773742  0.4276790414541876
  0.6666666666666666  0.0050151195773742  0.4276790414541876
  0.0000000000000000  0.5050151195773742  0.4276790414541876
  0.3333333333333333  0.5050151195773742  0.4276790414541876
  0.6666666666666666  0.5050151195773742  0.4276790414541876
  0.1666666666666667  0.2553786772359296  0.4475208044352825
  0.5000000000000000  0.2553786772359296  0.4475208044352825
  0.8333333333333333  0.2553786772359296  0.4475208044352825
  0.1666666666666667  0.7553786772359296  0.4475208044352825
  0.5000000000000000  0.7553786772359296  0.4475208044352825
  0.8333333333333333  0.7553786772359296  0.4475208044352825
  0.0000000000000000  0.0053795368777837  0.5637240945536529
  0.3333333333333333  0.0053795368777837  0.5637240945536529
  0.6666666666666666  0.0053795368777837  0.5637240945536529
  0.0000000000000000  0.5053795368777837  0.5637240945536529
  0.3333333333333333  0.5053795368777837  0.5637240945536529
  0.6666666666666666  0.5053795368777837  0.5637240945536529
